; benchmark generated from python API
(set-info :status unknown)
(declare-fun x_days () Int)
(assert
 (>= x_days (- 36584)))
(assert
 (<= x_days 36829))
(assert
 (>= x_days 8341))
(assert
 (<= x_days 8705))
(assert
 (let ((?x281 (+ x_days 730179)))
(let ((?x629 (mod ?x281 146097)))
(let ((?x2537 (div ?x629 36524)))
(let ((?x2100 (ite (<= 4 ?x2537) 3 ?x2537)))
(let ((?x2930 (- ?x629 (* ?x2100 36524))))
(let ((?x1501 (mod ?x2930 1461)))
(let ((?x672 (div ?x1501 365)))
(let ((?x2856 (ite (<= 4 ?x672) 3 ?x672)))
(let ((?x223 (+ (+ (* (div ?x281 146097) 400) (* ?x2100 100)) (* (div ?x2930 1461) 4))))
(let ((?x2219 (+ (+ ?x223 ?x2856) 1)))
(let (($x2995 (or (and (= (mod ?x2219 4) 0) (and (distinct (mod ?x2219 100) 0) true)) (= (mod ?x2219 400) 0))))
(let ((?x503 (- ?x1501 (* ?x2856 365))))
(let ((?x296 (ite $x2995 31 31)))
(let (($x922 (>= ?x503 ?x296)))
(let ((?x854 (ite $x922 (+ (- ?x503 ?x296) 1) (+ (- ?x503 (ite $x2995 0 0)) 1))))
(let ((?x305 (ite $x2995 60 59)))
(let (($x401 (>= ?x503 ?x305)))
(let ((?x2363 (ite $x2995 91 90)))
(let (($x2400 (>= ?x503 ?x2363)))
(let ((?x231 (ite $x2400 (+ (- ?x503 ?x2363) 1) (ite $x401 (+ (- ?x503 ?x305) 1) ?x854))))
(let ((?x589 (ite $x2995 121 120)))
(let (($x976 (>= ?x503 ?x589)))
(let ((?x376 (ite $x2995 152 151)))
(let (($x1760 (>= ?x503 ?x376)))
(let ((?x2223 (ite $x1760 (+ (- ?x503 ?x376) 1) (ite $x976 (+ (- ?x503 ?x589) 1) ?x231))))
(let ((?x604 (ite $x2995 182 181)))
(let (($x711 (>= ?x503 ?x604)))
(let ((?x350 (ite $x2995 213 212)))
(let (($x1283 (>= ?x503 ?x350)))
(let ((?x653 (ite $x1283 (+ (- ?x503 ?x350) 1) (ite $x711 (+ (- ?x503 ?x604) 1) ?x2223))))
(let ((?x678 (ite $x2995 244 243)))
(let (($x597 (>= ?x503 ?x678)))
(let ((?x2088 (ite $x2995 274 273)))
(let (($x236 (>= ?x503 ?x2088)))
(let ((?x914 (ite $x236 (+ (- ?x503 ?x2088) 1) (ite $x597 (+ (- ?x503 ?x678) 1) ?x653))))
(let ((?x3313 (ite $x2995 305 304)))
(let (($x785 (>= ?x503 ?x3313)))
(let ((?x955 (ite $x2995 335 334)))
(let (($x3291 (>= ?x503 ?x955)))
(let ((?x807 (ite $x3291 (+ (- ?x503 ?x955) 1) (ite $x785 (+ (- ?x503 ?x3313) 1) ?x914))))
(let ((?x896 (ite $x976 5 (ite $x2400 4 (ite $x401 3 (ite $x922 2 1))))))
(let ((?x1145 (ite $x597 9 (ite $x1283 8 (ite $x711 7 (ite $x1760 6 ?x896))))))
(let ((?x2969 (+ (ite $x3291 12 (ite $x785 11 (ite $x236 10 ?x1145))) (+ (* 0 12) 2))))
(let ((?x855 (- ?x2969 1)))
(let ((?x3499 (+ (mod ?x855 12) 1)))
(let ((?x264 (ite (or (= ?x3499 4) (= ?x3499 6) (= ?x3499 9) (= ?x3499 11)) 30 31)))
(let (($x2227 (and (= (mod (+ ?x2219 (+ 0 (div ?x855 12))) 4) 0) (and (distinct (mod (+ ?x2219 (+ 0 (div ?x855 12))) 100) 0) true))))
(let (($x661 (or $x2227 (= (mod (+ ?x2219 (+ 0 (div ?x855 12))) 400) 0))))
(let ((?x735 (ite (= ?x3499 2) (ite $x661 29 28) ?x264)))
(let ((?x536 (ite (> 1 ?x807) 1 (ite (> ?x807 ?x735) ?x735 ?x807))))
(let ((?x870 (ite (> 1 ?x536) 1 (ite (> ?x536 ?x735) ?x735 ?x536))))
(let ((?x930 (ite (= 2 ?x3499) (ite $x661 31 31) (ite (= 1 ?x3499) (ite $x661 0 0) 0))))
(let ((?x1391 (ite (= 4 ?x3499) (ite $x661 91 90) (ite (= 3 ?x3499) (ite $x661 60 59) ?x930))))
(let ((?x2805 (ite (= 6 ?x3499) (ite $x661 152 151) (ite (= 5 ?x3499) (ite $x661 121 120) ?x1391))))
(let ((?x1651 (ite (= 8 ?x3499) (ite $x661 213 212) (ite (= 7 ?x3499) (ite $x661 182 181) ?x2805))))
(let ((?x665 (ite (= 10 ?x3499) (ite $x661 274 273) (ite (= 9 ?x3499) (ite $x661 244 243) ?x1651))))
(let ((?x1255 (ite (= 12 ?x3499) (ite $x661 335 334) (ite (= 11 ?x3499) (ite $x661 305 304) ?x665))))
(let ((?x2685 (+ (* 365 (- (+ ?x2219 (+ 0 (div ?x855 12))) 1)) (div (- (+ ?x2219 (+ 0 (div ?x855 12))) 1) 4))))
(let ((?x934 (+ (- ?x2685 (div (- (+ ?x2219 (+ 0 (div ?x855 12))) 1) 100)) (div (- (+ ?x2219 (+ 0 (div ?x855 12))) 1) 400))))
(let ((?x2635 (+ (+ (- (+ (+ ?x934 ?x1255) (- ?x870 1)) 730179) 0) 730179)))
(let ((?x2360 (mod ?x2635 146097)))
(let ((?x2822 (div ?x2360 36524)))
(let ((?x3071 (ite (<= 4 ?x2822) 3 ?x2822)))
(let ((?x3307 (- ?x2360 (* ?x3071 36524))))
(let ((?x2534 (mod ?x3307 1461)))
(let ((?x1758 (div ?x2534 365)))
(let ((?x1540 (ite (<= 4 ?x1758) 3 ?x1758)))
(let ((?x1342 (+ (+ (* (div ?x2635 146097) 400) (* ?x3071 100)) (* (div ?x3307 1461) 4))))
(let ((?x1776 (+ (+ ?x1342 ?x1540) 1)))
(let (($x1482 (or (and (= (mod ?x1776 4) 0) (and (distinct (mod ?x1776 100) 0) true)) (= (mod ?x1776 400) 0))))
(let ((?x1849 (- ?x2534 (* ?x1540 365))))
(let ((?x726 (ite $x1482 31 31)))
(let (($x1336 (>= ?x1849 ?x726)))
(let ((?x3269 (ite $x1336 (+ (- ?x1849 ?x726) 1) (+ (- ?x1849 (ite $x1482 0 0)) 1))))
(let ((?x1821 (ite $x1482 60 59)))
(let (($x1448 (>= ?x1849 ?x1821)))
(let ((?x1402 (ite $x1482 91 90)))
(let (($x2359 (>= ?x1849 ?x1402)))
(let ((?x1256 (ite $x2359 (+ (- ?x1849 ?x1402) 1) (ite $x1448 (+ (- ?x1849 ?x1821) 1) ?x3269))))
(let ((?x2680 (ite $x1482 121 120)))
(let (($x253 (>= ?x1849 ?x2680)))
(let ((?x1565 (ite $x1482 152 151)))
(let (($x2950 (>= ?x1849 ?x1565)))
(let ((?x1150 (ite $x2950 (+ (- ?x1849 ?x1565) 1) (ite $x253 (+ (- ?x1849 ?x2680) 1) ?x1256))))
(let ((?x2014 (ite $x1482 182 181)))
(let (($x1135 (>= ?x1849 ?x2014)))
(let ((?x2873 (ite $x1482 213 212)))
(let (($x3031 (>= ?x1849 ?x2873)))
(let ((?x1970 (ite $x3031 (+ (- ?x1849 ?x2873) 1) (ite $x1135 (+ (- ?x1849 ?x2014) 1) ?x1150))))
(let ((?x3183 (ite $x1482 244 243)))
(let (($x1451 (>= ?x1849 ?x3183)))
(let ((?x2714 (ite $x1482 274 273)))
(let (($x927 (>= ?x1849 ?x2714)))
(let ((?x656 (ite $x927 (+ (- ?x1849 ?x2714) 1) (ite $x1451 (+ (- ?x1849 ?x3183) 1) ?x1970))))
(let ((?x1014 (ite $x1482 305 304)))
(let (($x322 (>= ?x1849 ?x1014)))
(let ((?x1731 (ite $x1482 335 334)))
(let (($x344 (>= ?x1849 ?x1731)))
(let ((?x451 (ite $x344 (+ (- ?x1849 ?x1731) 1) (ite $x322 (+ (- ?x1849 ?x1014) 1) ?x656))))
(let (($x949 (= 0 0)))
(let (($x851 (= (mod (ite $x949 (+ ?x2219 (+ 0 (div ?x855 12))) ?x1776) 400) 0)))
(let (($x260 (and (distinct (mod (ite $x949 (+ ?x2219 (+ 0 (div ?x855 12))) ?x1776) 100) 0) true)))
(let (($x3132 (= (mod (ite $x949 (+ ?x2219 (+ 0 (div ?x855 12))) ?x1776) 4) 0)))
(let (($x655 (or (and $x3132 $x260) $x851)))
(let ((?x812 (ite $x253 5 (ite $x2359 4 (ite $x1448 3 (ite $x1336 2 1))))))
(let ((?x2698 (ite $x1451 9 (ite $x3031 8 (ite $x1135 7 (ite $x2950 6 ?x812))))))
(let ((?x673 (ite $x949 ?x3499 (ite $x344 12 (ite $x322 11 (ite $x927 10 ?x2698))))))
(let ((?x2457 (ite (= 2 ?x673) (ite $x655 31 31) (ite (= 1 ?x673) (ite $x655 0 0) 0))))
(let ((?x898 (ite (= 4 ?x673) (ite $x655 91 90) (ite (= 3 ?x673) (ite $x655 60 59) ?x2457))))
(let ((?x459 (ite (= 6 ?x673) (ite $x655 152 151) (ite (= 5 ?x673) (ite $x655 121 120) ?x898))))
(let ((?x643 (ite (= 8 ?x673) (ite $x655 213 212) (ite (= 7 ?x673) (ite $x655 182 181) ?x459))))
(let ((?x693 (ite (= 10 ?x673) (ite $x655 274 273) (ite (= 9 ?x673) (ite $x655 244 243) ?x643))))
(let ((?x688 (ite (= 12 ?x673) (ite $x655 335 334) (ite (= 11 ?x673) (ite $x655 305 304) ?x693))))
(let ((?x2440 (+ ?x2219 (+ 0 (div ?x855 12)))))
(let ((?x535 (ite $x949 ?x2440 ?x1776)))
(let ((?x575 (- ?x535 1)))
(let ((?x1549 (+ (- (+ (* 365 ?x575) (div ?x575 4)) (div ?x575 100)) (div ?x575 400))))
(= (- (+ (+ ?x1549 ?x688) (- (ite $x949 ?x870 ?x451) 1)) 730179) (+ x_days 61))))))))))))))))))))))))))))))))))))))))))))))))))))))))))))))))))))))))))))))))))))))))))))))))))))))))))))))))))))))))
(check-sat)
